0 86 
1 88 
2 88 
3 90 
4 91 
5 93 
6 92 
7 90 
8 90 
9 85 
10 85 
11 82 
12 80 
13 81 
14 82 
15 83 
16 81 
17 78 
18 76 
19 74 
20 75 
21 71 
22 71 
23 67 
24 67 
25 67 
26 67 
27 65 
28 65 
29 62 
30 60 
31 59 
32 58 
33 59 
34 58 
35 54 
36 51 
37 50 
38 48 
39 46 
40 43 
41 40 
42 41 
43 39 
44 37 
45 35 
46 33 
47 33 
48 33 
49 32 
50 31 
51 30 
52 29 
53 27 
54 21 
55 19 
56 18 
57 18 
58 19 
59 18 
60 17 
61 16 
62 17 
63 17 
64 15 
65 14 
66 13 
67 10 
68 8 
69 8 
70 9 
71 10 
72 9 
73 8 
74 6 
75 4 
76 2 
77 3 
78 2 
79 2 
80 2 
81 0 
82 0 

